FILENAME:   /home/mcs001/s132664/testsets/IP/miplib2017/supportcase43.mps.gz
SETTINGS:   settings_isopr_ostrowskidynamicbranching_avoidsubtreenodes
TIMELIMIT:  7200
OUTPUTNAME: final_miplib_symretope_if_extended_generating_set_cpx_v802__settings_isopr_ostrowskidynamicbranching_avoidsubtreenodes__2__
BINNAME:    bin/symmetries.linux.x86_64.gnu.opt.cpx
BASENAME:   supportcase43.mps.gz
SEED:       2
@01 /home/mcs001/s132664/testsets/IP/miplib2017/supportcase43.mps.gz ===========
@02 supportcase43.mps.gz
@03 1686581151
SCIP version 8.0.2 [precision: 8 byte] [memory: block] [mode: optimized] [LP solver: CPLEX 20.1.0.0] [GitHash: 5f0473c]
Copyright (C) 2002-2022 Konrad-Zuse-Zentrum fuer Informationstechnik Berlin (ZIB)

Symmetry handling routines - (c) Marc Pfetsch, Thomas Rehn, Christopher Hojny.
[GitHash: a1587cb]


Turned off presolver <gateextraction>.
reading parameter file <../settings/settings_isopr_ostrowskidynamicbranching_avoidsubtreenodes.set> ...

Changed settings:
limits/time = 7200
limits/restarts = 0
randomization/randomseedshift = 2
constraints/orbitope/sepafreq = -1
constraints/orbitope/propfreq = 1
presolving/gateextraction/maxrounds = 0
propagating/isoprune/avoidsubtreenodes = TRUE
useisoprune = TRUE


solving problem ...

original problem has 209232 variables (201 bin, 0 int, 0 impl, 209031 cont) and 215032 constraints
presolving:
(round 1, exhaustive) 1 del vars, 1 del conss, 0 add conss, 1 chg bounds, 0 chg sides, 0 chg coeffs, 208771 upgd conss, 0 impls, 100 clqs
   (14.8s) probing cycle finished: starting next cycle
Required symmetry:			(1 bin, 0 int, 0 cont); (fixed: 0 bin, 1 int, 0 cont)
Time for symmetry detection:		2.65 	(matrix graph, 842373 nodes, 2088968 edges)
Number of generators:			11 	(max: 305)
Order of symmetry group:		3072
Log10 of symmetry group order:		3.5
Number of vars moved by some symmetry:	58042
Total time for symmetry detection:	2.85

Turned off presolver <domcol>.
Turned off presolver <components>.

presolving (2 rounds: 2 fast, 2 medium, 2 exhaustive):
 1 deleted vars, 1 deleted constraints, 0 added constraints, 1 tightened bounds, 0 added holes, 0 changed sides, 0 changed coefficients
 834702 implications, 100 cliques
presolved problem has 209231 variables (200 bin, 0 int, 0 impl, 209031 cont) and 215032 constraints
 208671 constraints of type <varbound>
    100 constraints of type <setppc>
   6260 constraints of type <linear>
      1 constraints of type <symmetries>
transformed objective value is always integral (scale: 1)
Presolving Time: 17.03

 time | node  | left  |LP iter|LP it/n|mem/heur|mdpt |frac |vars |cons |cols |rows |cuts |confs|strbr|  dualbound   | primalbound  |  gap   
p21.2s|     1 |     0 |  3683 |     - |  clique|   0 |   - | 209k| 215k| 209k| 215k|   0 |   0 |   0 | 0.000000e+00 | 0.000000e+00 |   0.00%

SCIP Status        : problem is solved [optimal solution found]
Solving Time (sec) : 21.52
Solving Nodes      : 1
Primal Bound       : +0.00000000000000e+00 (1 solutions)
Dual Bound         : +0.00000000000000e+00
Gap                : 0.00 %

Number of variables fixed to 0 by isomorphism pruning:	     0
Number of variables fixed to 1 by isomorphism pruning:	     0
@04 1686581176
